* ENCODING=ISO-8859-1
NAME          CPLEX
ROWS
 N  obj1    
 G  c1      
 G  c2      
 G  c3      
 G  c4      
 G  c5      
 G  c6      
 G  c7      
 G  c8      
 G  c9      
 G  c10     
 G  c11     
 G  c12     
 G  c13     
 G  c14     
 G  c15     
 G  c16     
 G  c17     
 G  c18     
 G  c19     
 G  c20     
 G  c21     
 G  c22     
 G  c23     
 G  c24     
 G  c25     
 G  c26     
 G  c27     
 G  c28     
 G  c29     
 G  c30     
 G  c31     
 G  c32     
 G  c33     
 G  c34     
 G  c35     
 G  c36     
 G  c37     
 G  c38     
 G  c39     
 G  c40     
 G  c41     
 G  c42     
 G  c43     
 G  c44     
 G  c45     
 G  c46     
 G  c47     
 G  c48     
 G  c49     
 G  c50     
 G  c51     
 G  c52     
 G  c53     
 G  c54     
 G  c55     
 G  c56     
 G  c57     
 G  c58     
 G  c59     
 G  c60     
 G  c61     
 G  c62     
 G  c63     
 G  c64     
 G  c65     
 G  c66     
 G  c67     
 G  c68     
 G  c69     
 G  c70     
COLUMNS
    MARK0000  'MARKER'                 'INTORG'
    x1        obj1                            1
    x1        c14                           888
    x1        c27                           978
    x1        c42                           962
    x1        c46                           566
    x1        c56                           174
    x1        c57                           466
    x2        obj1                            1
    x2        c6                            398
    x2        c9                            564
    x2        c39                           159
    x2        c44                           282
    x3        obj1                            1
    x3        c10                           201
    x3        c46                           403
    x3        c56                           473
    x3        c61                           394
    x4        obj1                            1
    x4        c8                            867
    x4        c12                           467
    x4        c15                           112
    x4        c30                           148
    x4        c36                           888
    x4        c50                           692
    x4        c52                           919
    x4        c61                           550
    x4        c63                           302
    x4        c66                           393
    x5        obj1                            1
    x5        c4                            192
    x5        c23                           339
    x5        c26                           222
    x5        c48                           589
    x5        c52                           854
    x5        c53                           930
    x5        c63                           575
    x5        c64                           585
    x6        obj1                            1
    x6        c3                            628
    x6        c7                            116
    x6        c16                           246
    x6        c22                           204
    x6        c24                           648
    x6        c26                           432
    x6        c29                           396
    x6        c34                           539
    x6        c41                           822
    x6        c50                           374
    x6        c66                           527
    x6        c67                           441
    x6        c70                           788
    x7        obj1                            1
    x7        c11                           290
    x7        c15                           407
    x7        c20                           483
    x7        c27                           647
    x7        c33                           426
    x7        c40                           157
    x7        c42                           237
    x7        c52                           494
    x7        c58                           459
    x7        c68                           715
    x8        obj1                            1
    x8        c1                            137
    x8        c14                           672
    x8        c26                           451
    x8        c36                           691
    x8        c39                           662
    x8        c45                           773
    x8        c46                           995
    x8        c48                           848
    x8        c56                           556
    x8        c59                           443
    x8        c65                           335
    x9        obj1                            1
    x9        c1                            752
    x9        c2                            545
    x9        c6                            517
    x9        c12                           379
    x9        c44                           875
    x9        c49                           981
    x9        c50                           542
    x9        c56                           192
    x9        c66                           151
    x10       obj1                            1
    x10       c8                            981
    x10       c24                           452
    x10       c38                           640
    x10       c42                           959
    x10       c44                           413
    x10       c58                           374
    x11       obj1                            1
    x11       c6                            443
    x11       c32                           711
    x11       c49                           511
    x11       c54                           223
    x11       c62                           627
    x12       obj1                            1
    x12       c9                            200
    x12       c20                           282
    x12       c48                           924
    x12       c53                           651
    x12       c54                           140
    x12       c59                           382
    x13       obj1                            1
    x13       c13                           911
    x13       c14                           512
    x13       c18                           957
    x13       c26                           459
    x13       c45                           155
    x13       c46                           543
    x13       c55                           113
    x13       c58                           967
    x14       obj1                            1
    x14       c43                           734
    x14       c48                           492
    x14       c55                           128
    x14       c61                           313
    x14       c63                           833
    x14       c64                           960
    x15       obj1                            1
    x15       c10                           803
    x15       c28                           877
    x15       c34                           952
    x15       c44                           321
    x15       c45                           436
    x15       c51                           463
    x15       c52                           497
    x15       c59                           104
    x15       c60                           105
    x15       c61                           449
    x16       obj1                            1
    x16       c17                           837
    x16       c22                           974
    x16       c27                           608
    x16       c31                           708
    x16       c49                           214
    x16       c63                           242
    x17       obj1                            1
    x17       c61                           418
    x17       c65                           706
    x17       c67                           282
    x18       obj1                            1
    x18       c20                           438
    x18       c23                           115
    x18       c29                           921
    x18       c43                           426
    x18       c45                           537
    x18       c63                           360
    x19       obj1                            1
    x19       c4                            403
    x19       c6                            973
    x19       c38                           203
    x19       c58                           217
    x20       obj1                            1
    x20       c5                            354
    x20       c21                           945
    x20       c37                           133
    x20       c39                           631
    x20       c54                           700
    x20       c65                           522
    x21       obj1                            1
    x21       c6                            284
    x21       c11                           333
    x21       c15                           991
    x21       c26                           605
    x21       c30                           110
    x21       c45                           892
    x21       c47                           407
    x21       c49                           732
    x21       c57                           191
    x22       obj1                            1
    x22       c3                            116
    x22       c5                            557
    x22       c11                           277
    x22       c14                           888
    x22       c29                           110
    x22       c31                           543
    x22       c62                           328
    x22       c70                           927
    x23       obj1                            1
    x23       c8                            639
    x23       c9                            361
    x23       c11                           382
    x23       c23                           111
    x23       c35                           502
    x23       c40                           439
    x23       c56                           820
    x23       c60                           524
    x24       obj1                            1
    x24       c4                            251
    x24       c13                           196
    x24       c16                           651
    x24       c36                           321
    x24       c39                           719
    x24       c49                           938
    x24       c57                           354
    x24       c65                           492
    x24       c66                           851
    x24       c67                           748
    x24       c70                           549
    x25       obj1                            1
    x25       c9                            314
    x25       c11                           311
    x25       c19                           627
    x25       c20                           212
    x25       c30                           549
    x25       c35                           437
    x25       c37                           452
    x25       c42                           612
    x25       c49                           735
    x25       c51                           805
    x26       obj1                            1
    x26       c2                            237
    x26       c17                           520
    x26       c18                           346
    x26       c27                           494
    x26       c42                           730
    x26       c53                           442
    x26       c67                           655
    x27       obj1                            1
    x27       c19                           635
    x27       c24                           975
    x27       c35                           256
    x27       c43                           156
    x27       c51                           723
    x28       obj1                            1
    x28       c8                            305
    x28       c24                           224
    x28       c26                           121
    x28       c32                           703
    x28       c41                           609
    x28       c54                           656
    x28       c55                           456
    x29       obj1                            1
    x29       c25                           312
    x29       c38                           497
    x29       c49                           672
    x29       c56                           453
    x29       c67                           436
    x30       obj1                            1
    x30       c3                            820
    x30       c17                           762
    x30       c22                           617
    x30       c40                           208
    x30       c53                           363
    x30       c62                           325
    x30       c66                           715
    x30       c70                           661
    x31       obj1                            1
    x31       c3                            315
    x31       c10                           221
    x31       c17                           187
    x31       c32                           520
    x31       c36                           348
    x31       c45                           462
    x31       c54                           316
    x32       obj1                            1
    x32       c2                            898
    x32       c12                           756
    x32       c15                           320
    x32       c29                           266
    x32       c42                           418
    x32       c68                           799
    x33       obj1                            1
    x33       c10                           191
    x33       c14                           306
    x33       c21                           186
    x33       c27                           584
    x33       c38                           174
    x33       c54                           154
    x33       c60                           373
    x33       c69                           950
    x33       c70                           221
    x34       obj1                            1
    x34       c6                            821
    x34       c32                           908
    x34       c47                           454
    x34       c54                           433
    x34       c64                           692
    x34       c66                           842
    x35       obj1                            1
    x35       c41                           310
    x35       c50                           134
    x35       c55                           537
    x35       c63                           954
    x36       obj1                            1
    x36       c5                            203
    x36       c17                           260
    x36       c18                           782
    x36       c25                           768
    x36       c29                           147
    x36       c39                           258
    x37       obj1                            1
    x37       c8                            924
    x37       c28                           190
    x37       c29                           650
    x37       c30                           452
    x37       c64                           917
    x37       c65                           522
    x37       c69                           583
    x37       c70                           742
    x38       obj1                            1
    x38       c1                            543
    x38       c7                            451
    x38       c13                           117
    x38       c25                           214
    x38       c27                           912
    x38       c42                           408
    x38       c54                           403
    x38       c63                           986
    x39       obj1                            1
    x39       c34                           546
    x39       c53                           914
    x39       c69                           389
    x40       obj1                            1
    x40       c3                            883
    x40       c20                           452
    x40       c35                           341
    x40       c42                           672
    x40       c45                           915
    x40       c47                           951
    x40       c50                           517
    x40       c55                           753
    x41       obj1                            1
    x41       c5                            879
    x41       c6                            576
    x41       c38                           634
    x41       c48                           333
    x41       c58                           396
    x42       obj1                            1
    x42       c2                            816
    x42       c3                            537
    x42       c7                            972
    x42       c28                           494
    x42       c35                           806
    x42       c44                           447
    x42       c45                           949
    x42       c51                           351
    x42       c59                           684
    x42       c66                           763
    x43       obj1                            1
    x43       c3                            915
    x43       c8                            705
    x43       c23                           563
    x43       c47                           338
    x43       c58                           738
    x44       obj1                            1
    x44       c1                            176
    x44       c4                            935
    x44       c8                            124
    x44       c22                           961
    x44       c28                           157
    x44       c29                           838
    x44       c46                           475
    x44       c53                           524
    x44       c55                           737
    x44       c57                           450
    x45       obj1                            1
    x45       c19                           411
    x45       c27                           109
    x45       c43                           859
    x45       c52                           721
    x46       obj1                            1
    x46       c13                           809
    x46       c21                           442
    x46       c39                           822
    x46       c40                           978
    x46       c51                           346
    x46       c62                           871
    x47       obj1                            1
    x47       c16                           221
    x47       c23                           876
    x47       c48                           770
    x47       c49                           206
    x47       c51                           175
    x47       c57                           694
    x47       c62                           476
    x47       c64                           894
    x47       c66                           653
    x47       c67                           612
    x48       obj1                            1
    x48       c14                           320
    x48       c21                           194
    x48       c22                           512
    x48       c28                           301
    x48       c31                           807
    x48       c33                           641
    x48       c36                           536
    x48       c43                           629
    x48       c44                           861
    x48       c60                           574
    x48       c66                           504
    x49       obj1                            1
    x49       c7                            894
    x49       c14                           147
    x49       c18                           808
    x49       c30                           899
    x49       c38                           818
    x49       c52                           233
    x49       c58                           636
    x50       obj1                            1
    x50       c5                            104
    x50       c9                            207
    x50       c10                           541
    x50       c36                           212
    x50       c41                           541
    x50       c49                           772
    x51       obj1                            1
    x51       c8                            881
    x51       c13                           285
    x51       c14                           450
    x51       c16                           388
    x51       c29                           425
    x51       c31                           941
    x51       c33                           115
    x51       c48                           944
    x51       c59                           645
    x52       obj1                            1
    x52       c2                            487
    x52       c4                            344
    x52       c6                            666
    x52       c19                           551
    x52       c25                           613
    x52       c30                           908
    x52       c56                           782
    x52       c59                           802
    x52       c63                           826
    x53       obj1                            1
    x53       c1                            492
    x53       c5                            270
    x53       c50                           902
    x54       obj1                            1
    x54       c5                            855
    x54       c13                           829
    x54       c19                           342
    x54       c29                           633
    x54       c44                           929
    x54       c48                           742
    x54       c68                           652
    x55       obj1                            1
    x55       c1                            551
    x55       c15                           898
    x55       c33                           327
    x55       c39                           658
    x55       c48                           714
    x55       c50                           263
    x55       c64                           935
    x56       obj1                            1
    x56       c19                           993
    x56       c22                           757
    x56       c58                           934
    x56       c61                           655
    x56       c65                           907
    x56       c69                           397
    x57       obj1                            1
    x57       c6                            987
    x57       c25                           615
    x57       c32                           503
    x57       c34                           334
    x57       c56                           414
    x57       c70                           872
    x58       obj1                            1
    x58       c3                            625
    x58       c4                            446
    x58       c11                           225
    x58       c31                           767
    x58       c38                           276
    x58       c61                           409
    x58       c69                           463
    x58       c70                           529
    x59       obj1                            1
    x59       c9                            643
    x59       c29                           261
    x59       c32                           798
    x59       c41                           129
    x59       c57                           780
    x59       c61                           152
    x59       c66                           391
    x59       c67                           352
    x60       obj1                            1
    x60       c15                           475
    x60       c31                           525
    x61       obj1                            1
    x61       c3                            119
    x61       c7                            789
    x61       c10                           265
    x61       c23                           176
    x61       c38                           977
    x61       c42                           745
    x61       c43                           725
    x61       c55                           673
    x62       obj1                            1
    x62       c3                            801
    x62       c11                           369
    x62       c13                           511
    x62       c14                           896
    x62       c23                           777
    x62       c30                           508
    x62       c40                           286
    x62       c52                           200
    x62       c67                           270
    x63       obj1                            1
    x63       c9                            971
    x63       c12                           500
    x63       c31                           705
    x63       c33                           342
    x63       c48                           122
    x63       c53                           381
    x63       c70                           765
    x64       obj1                            1
    x64       c36                           529
    x64       c38                           439
    x65       obj1                            1
    x65       c14                           571
    x65       c18                           827
    x65       c31                           653
    x65       c40                           568
    x65       c58                           462
    x66       obj1                            1
    x66       c2                            498
    x66       c4                            115
    x66       c22                           903
    x66       c31                           683
    x66       c39                           782
    x66       c51                           689
    x67       obj1                            1
    x67       c2                            285
    x67       c8                            575
    x67       c15                           851
    x67       c20                           602
    x67       c21                           658
    x67       c33                           888
    x67       c34                           591
    x67       c36                           969
    x67       c37                           157
    x67       c54                           337
    x67       c65                           996
    x68       obj1                            1
    x68       c36                           327
    x68       c58                           524
    x68       c68                           911
    x69       obj1                            1
    x69       c15                           984
    x69       c25                           103
    x69       c28                           265
    x69       c33                           963
    x69       c37                           743
    x69       c42                           247
    x69       c56                           361
    x69       c63                           646
    x69       c67                           804
    x69       c69                           968
    x70       obj1                            1
    x70       c6                            807
    x70       c30                           426
    x70       c32                           561
    x70       c55                           753
    x70       c56                           112
    x70       c67                           168
    x70       c68                           732
    x70       c69                           928
    MARK0001  'MARKER'                 'INTEND'
RHS
    rhs       c1                           1326
    rhs       c2                           1883
    rhs       c3                           2880
    rhs       c4                           1343
    rhs       c5                           1611
    rhs       c6                           3236
    rhs       c7                           1611
    rhs       c8                           3001
    rhs       c9                           1630
    rhs       c10                          1111
    rhs       c11                          1094
    rhs       c12                          1051
    rhs       c13                          1829
    rhs       c14                          2825
    rhs       c15                          2519
    rhs       c16                           753
    rhs       c17                          1283
    rhs       c18                          1860
    rhs       c19                          1780
    rhs       c20                          1235
    rhs       c21                          1213
    rhs       c22                          2464
    rhs       c23                          1479
    rhs       c24                          1150
    rhs       c25                          1313
    rhs       c26                          1145
    rhs       c27                          2166
    rhs       c28                          1142
    rhs       c29                          2324
    rhs       c30                          2000
    rhs       c31                          3166
    rhs       c32                          2352
    rhs       c33                          1851
    rhs       c34                          1481
    rhs       c35                          1171
    rhs       c36                          2411
    rhs       c37                           743
    rhs       c38                          2329
    rhs       c39                          2346
    rhs       c40                          1318
    rhs       c41                          1206
    rhs       c42                          2995
    rhs       c43                          1765
    rhs       c44                          2064
    rhs       c45                          2560
    rhs       c46                          1491
    rhs       c47                          1075
    rhs       c48                          3239
    rhs       c49                          2881
    rhs       c50                          1712
    rhs       c51                          1776
    rhs       c52                          1959
    rhs       c53                          2103
    rhs       c54                          1681
    rhs       c55                          2075
    rhs       c56                          2169
    rhs       c57                          1468
    rhs       c58                          2854
    rhs       c59                          1530
    rhs       c60                           788
    rhs       c61                          1670
    rhs       c62                          1314
    rhs       c63                          2862
    rhs       c64                          2492
    rhs       c65                          2240
    rhs       c66                          2895
    rhs       c67                          2384
    rhs       c68                          1905
    rhs       c69                          2339
    rhs       c70                          3027
BOUNDS
 LI bnd       x1        0
 LI bnd       x2        0
 LI bnd       x3        0
 LI bnd       x4        0
 LI bnd       x5        0
 LI bnd       x6        0
 LI bnd       x7        0
 LI bnd       x8        0
 LI bnd       x9        0
 LI bnd       x10       0
 LI bnd       x11       0
 LI bnd       x12       0
 LI bnd       x13       0
 LI bnd       x14       0
 LI bnd       x15       0
 LI bnd       x16       0
 LI bnd       x17       0
 LI bnd       x18       0
 LI bnd       x19       0
 LI bnd       x20       0
 LI bnd       x21       0
 LI bnd       x22       0
 LI bnd       x23       0
 LI bnd       x24       0
 LI bnd       x25       0
 LI bnd       x26       0
 LI bnd       x27       0
 LI bnd       x28       0
 LI bnd       x29       0
 LI bnd       x30       0
 LI bnd       x31       0
 LI bnd       x32       0
 LI bnd       x33       0
 LI bnd       x34       0
 LI bnd       x35       0
 LI bnd       x36       0
 LI bnd       x37       0
 LI bnd       x38       0
 LI bnd       x39       0
 LI bnd       x40       0
 LI bnd       x41       0
 LI bnd       x42       0
 LI bnd       x43       0
 LI bnd       x44       0
 LI bnd       x45       0
 LI bnd       x46       0
 LI bnd       x47       0
 LI bnd       x48       0
 LI bnd       x49       0
 LI bnd       x50       0
 LI bnd       x51       0
 LI bnd       x52       0
 LI bnd       x53       0
 LI bnd       x54       0
 LI bnd       x55       0
 LI bnd       x56       0
 LI bnd       x57       0
 LI bnd       x58       0
 LI bnd       x59       0
 LI bnd       x60       0
 LI bnd       x61       0
 LI bnd       x62       0
 LI bnd       x63       0
 LI bnd       x64       0
 LI bnd       x65       0
 LI bnd       x66       0
 LI bnd       x67       0
 LI bnd       x68       0
 LI bnd       x69       0
 LI bnd       x70       0
ENDATA
